
Gurobi 7.5.2 (linux64) logging started Sun Jan  3 00:16:12 2021

Changed value of parameter LogFile to /home/aniket/python_scripts/Plasmids-Optimization/exp/2019-05-07__iterative_MILP_unweighted/feasibility_check/sample_66/1.1.1/nplasmids_1/MILP/m.log
   Prev: gurobi.log  Default: 
Changed value of parameter TimeLimit to 2400.0
   Prev: 1e+100  Min: 0.0  Max: 1e+100  Default: 1e+100
Optimize a model with 3224 rows, 1473 columns and 5827 nonzeros
Variable types: 551 continuous, 922 integer (372 binary)
Coefficient statistics:
  Matrix range     [1e-02, 8e+05]
  Objective range  [1e-03, 1e+00]
  Bounds range     [1e+00, 1e+00]
  RHS range        [7e-01, 2e+05]
Presolve removed 2807 rows and 1160 columns
Presolve time: 0.01s
Presolved: 417 rows, 313 columns, 1203 nonzeros
Variable types: 67 continuous, 246 integer (177 binary)

Root relaxation: infeasible, 225 iterations, 0.00 seconds

    Nodes    |    Current Node    |     Objective Bounds      |     Work
 Expl Unexpl |  Obj  Depth IntInf | Incumbent    BestBd   Gap | It/Node Time

     0     0 infeasible    0               - infeasible      -     -    0s

Explored 0 nodes (225 simplex iterations) in 0.01 seconds
Thread count was 4 (of 4 available processors)

Solution count 0

Model is infeasible or unbounded
Best objective -, best bound -, gap -
Presolve removed 2954 rows and 1237 columns
Presolve time: 0.01s
Presolved: 270 rows, 236 columns, 824 nonzeros
Variable types: 0 continuous, 236 integer (167 binary)

Root relaxation: infeasible, 124 iterations, 0.00 seconds

    Nodes    |    Current Node    |     Objective Bounds      |     Work
 Expl Unexpl |  Obj  Depth IntInf | Incumbent    BestBd   Gap | It/Node Time

     0     0 infeasible    0               - infeasible      -     -    0s

Explored 0 nodes (124 simplex iterations) in 0.01 seconds
Thread count was 4 (of 4 available processors)

Solution count 0

Model is infeasible
Best objective -, best bound -, gap -

Computing Irreducible Inconsistent Subsystem (IIS)...

      Constraints           Bounds       Runtime
     Min       Max       Min      Max
------------------------------------------------
        0     2742         0     1101         0s
      366      366         0        0         2s

IIS computed: 366 constraints, 0 bounds
IIS runtime: 2.39 seconds
Warning: linear constraint 0 and linear constraint 1 have the same name "link_ubd"
